data;
param numTeams := 6;

param dist := 
	1 1 0
	1 2 745
	1 3 665
	1 4 929
	1 5 605
	1 6 521
	2 1 745
	2 2 0
	2 3 80
	2 4 337
	2 5 1090
	2 6 315
	3 1 665
	3 2 80
	3 3 0
	3 4 380
	3 5 1020
	3 6 257
	4 1 929
	4 2 337
	4 3 380
	4 4 0
	4 5 1380
	4 6 408
	5 1 605
	5 2 1090
	5 3 1020
	5 4 1380
	5 5 0
	5 6 1010
	6 1 521
	6 2 315
	6 3 257
	6 4 408
	6 5 1010
	6 6 0
;

end;
